c turning on binary mode checking
c parsing input formula with 259840 variables and 1039934 clauses
c finished parsing, read 3194407 bytes from proof file
c detected empty clause; start verification via backward checking
c 9123 of 1039934 clauses in core                            
c 3076 of 118519 lemmas in core using 103643 resolution steps
c 0 RAT lemmas in core; 572 redundant literals in core lemmas
s VERIFIED
c verification time: 1.730 seconds
